U_100_3.txt

VEHICLE     CAPACITY  LOCATIONS  CUSTOMER  OPTIONS  PRIORITIES  NUMTYPS
10		150		121		100		200		3		4

CUSTOMER  DEMAND
0	 17
1	 12
2	 18
3	 10
4	 16
5	 11
6	 10
7	 11
8	 13
9	 18
10	 19
11	 20
12	 17
13	 12
14	 14
15	 12
16	 18
17	 14
18	 11
19	 10
20	 18
21	 17
22	 19
23	 14
24	 18
25	 15
26	 10
27	 15
28	 15
29	 12
30	 10
31	 19
32	 13
33	 18
34	 16
35	 17
36	 18
37	 13
38	 16
39	 13
40	 16
41	 16
42	 15
43	 18
44	 16
45	 19
46	 15
47	 13
48	 19
49	 11
50	 11
51	 14
52	 15
53	 11
54	 15
55	 18
56	 20
57	 10
58	 15
59	 19
60	 14
61	 18
62	 16
63	 20
64	 12
65	 13
66	 15
67	 19
68	 16
69	 16
70	 17
71	 15
72	 15
73	 10
74	 20
75	 13
76	 12
77	 18
78	 20
79	 20
80	 15
81	 10
82	 20
83	 17
84	 19
85	 13
86	 13
87	 13
88	 15
89	 12
90	 12
91	 19
92	 18
93	 20
94	 16
95	 11
96	 10
97	 14
98	 19
99	 13

LOCATION  XCOORD  YCOORD  CAP  READY  DUE  TYP  SERVICETIME
0		40		33		-1		0		720	 0		0
1		18		45		-1		379		499		 2		6
2		26		40		-1		0		360		 2		6
3		6		25		-1		477		597		 2		6
4		15		31		-1		360		720		 2		6
5		1		30		-1		0		360		 2		6
6		6		14		-1		17		137		 2		6
7		14		49		-1		72		312		 2		6
8		33		21		-1		367		607		 2		6
9		21		23		-1		474		594		 2		6
10		43		29		-1		371		491		 2		6
11		17		18		-1		581		701		 2		6
12		22		49		-1		197		317		 2		6
13		24		1		-1		587		707		 2		6
14		20		2		-1		273		513		 2		6
15		12		18		-1		360		720		 2		6
16		21		38		-1		360		720		 2		6
17		43		38		-1		372		612		 2		6
18		39		38		-1		74		194		 2		6
19		23		34		-1		360		720		 2		6
20		29		33		-1		208		328		 2		6
21		1		5		-1		535		655		 2		6
22		29		30		-1		0		360		 2		6
23		33		18		-1		313		553		 2		6
24		25		2		-1		381		501		 2		6
25		26		18		-1		518		638		 2		6
26		41		8		-1		0		360		 2		6
27		14		6		-1		175		295		 2		6
28		39		15		-1		85		205		 2		6
29		8		20		-1		518		638		 2		6
30		30		43		-1		360		720		 2		6
31		36		34		-1		243		483		 2		6
32		8		15		-1		304		544		 2		6
33		25		40		-1		66		186		 2		6
34		48		39		-1		0		360		 2		6
35		25		41		-1		510		630		 2		6
36		24		2		-1		172		292		 2		6
37		3		27		-1		169		409		 2		6
38		21		26		-1		0		360		 2		6
39		3		4		-1		532		652		 2		6
40		8		17		-1		369		489		 2		6
41		43		40		-1		360		720		 2		6
42		20		28		-1		0		360		 2		6
43		37		8		-1		360		720		 2		6
44		15		32		-1		360		720		 2		6
45		14		13		-1		155		275		 2		6
46		24		33		-1		68		188		 2		6
47		18		41		-1		360		720		 2		6
48		47		39		-1		441		561		 2		6
49		40		37		-1		368		488		 2		6
50		8		3		-1		360		720		 2		6
51		5		11		-1		188		308		 2		6
52		4		4		-1		360		720		 2		6
53		45		46		-1		11		131		 2		6
54		35		32		-1		69		189		 2		6
55		46		19		-1		0		360		 2		6
56		30		2		-1		172		292		 2		6
57		38		48		-1		0		360		 2		6
58		17		5		-1		37		277		 2		6
59		19		36		-1		477		597		 2		6
60		11		11		-1		0		360		 2		6
61		2		18		-1		0		360		 2		6
62		8		46		-1		53		173		 2		6
63		28		47		-1		228		348		 2		6
64		20		25		-1		360		720		 2		6
65		30		5		-1		163		283		 2		6
66		40		18		-1		594		714		 2		6
67		29		34		-1		57		177		 2		6
68		27		39		-1		10		130		 2		6
69		24		4		-1		0		360		 2		6
70		12		49		-1		415		655		 2		6
71		10		22		-1		312		552		 2		6
72		4		8		-1		286		526		 2		6
73		6		19		-1		360		720		 2		6
74		17		24		-1		0		360		 2		6
75		36		3		-1		224		344		 2		6
76		48		7		-1		41		161		 2		6
77		46		8		-1		27		147		 2		6
78		1		21		-1		111		351		 2		6
79		27		41		-1		360		720		 2		6
80		36		34		-1		0		360		 2		6
81		17		7		-1		221		341		 2		6
82		21		37		-1		25		145		 2		6
83		20		31		-1		0		360		 2		6
84		46		22		-1		99		339		 2		6
85		41		5		-1		442		562		 2		6
86		19		48		-1		0		360		 2		6
87		50		36		-1		406		646		 2		6
88		29		10		-1		320		560		 2		6
89		12		19		-1		52		292		 2		6
90		41		14		-1		360		720		 2		6
91		50		47		-1		0		360		 2		6
92		5		8		-1		520		640		 2		6
93		9		40		-1		360		720		 2		6
94		9		21		-1		416		536		 2		6
95		15		38		-1		63		303		 2		6
96		48		15		-1		54		294		 2		6
97		8		12		-1		43		163		 2		6
98		4		26		-1		24		144		 2		6
99		39		40		-1		360		720		 2		6
100		20		46		-1		0		360		 2		6
101		32		10		5		239		719		 1		4
102		28		40		3		0		720		 1		4
103		38		22		5		183		663		 1		4
104		29		34		3		0		720		 1		4
105		26		43		3		0		720		 1		4
106		26		26		5		144		624		 1		4
107		26		9		5		220		700		 1		4
108		28		5		3		0		720		 1		4
109		21		45		5		0		720		 1		4
110		10		19		3		0		720		 1		4
111		16		8		5		199		679		 1		4
112		27		28		4		0		720		 1		4
113		28		9		5		164		644		 1		4
114		39		43		4		0		720		 1		4
115		15		22		5		0		720		 1		4
116		22		45		4		0		720		 1		4
117		43		9		3		0		720		 1		4
118		22		8		3		0		720		 1		4
119		30		37		3		0		720		 1		4
120		44		37		3		0		720		 1		4
OPTION  LOCATION  CUSTOMER  PRIO  SERVICETIME   COST
0		104		0		0		2		0
1		110		1		0		2		0
2		107		2		0		2		0
3		108		3		0		2		0
4		106		4		0		2		0
5		104		5		0		2		0
6		107		6		0		2		0
7		120		7		0		2		0
8		106		8		0		2		0
9		108		9		0		2		0
10		110		10		0		2		0
11		108		11		0		2		0
12		118		12		0		2		0
13		110		13		0		2		0
14		117		14		0		2		0
15		116		15		0		2		0
16		117		16		0		2		0
17		103		17		0		2		0
18		106		18		0		2		0
19		115		19		0		2		0
20		1		20		0		5		0
21		2		21		0		5		0
22		3		22		0		5		0
23		4		23		0		5		0
24		5		24		0		5		0
25		6		25		0		5		0
26		7		26		0		5		0
27		8		27		0		5		0
28		9		28		0		5		0
29		10		29		0		5		0
30		11		30		0		5		0
31		12		31		0		5		0
32		13		32		0		5		0
33		14		33		0		5		0
34		15		34		0		5		0
35		16		35		0		5		0
36		17		36		0		5		0
37		18		37		0		5		0
38		19		38		0		5		0
39		20		39		0		5		0
40		21		40		0		5		0
41		120		40		1		2		0
42		22		41		0		5		0
43		116		41		1		2		0
44		23		42		0		5		0
45		116		42		1		2		0
46		24		43		0		5		0
47		113		43		1		2		0
48		25		44		0		5		0
49		106		44		1		2		0
50		26		45		1		5		0
51		103		45		0		2		0
52		27		46		1		5		0
53		113		46		0		2		0
54		28		47		1		5		0
55		107		47		0		2		0
56		29		48		0		5		0
57		115		48		1		2		0
58		30		49		0		5		0
59		114		49		1		2		0
60		31		50		1		5		0
61		104		50		0		2		0
62		32		51		0		5		0
63		111		51		1		2		0
64		33		52		0		5		0
65		104		52		1		2		0
66		34		53		1		5		0
67		103		53		0		2		0
68		35		54		0		5		0
69		120		54		1		2		0
70		36		55		1		5		0
71		107		55		0		2		0
72		37		56		0		5		0
73		115		56		1		2		0
74		38		57		0		5		0
75		104		57		1		2		0
76		39		58		0		5		0
77		107		58		1		2		0
78		40		59		1		5		0
79		119		59		0		2		0
80		41		60		0		5		0
81		102		60		1		2		0
82		117		60		2		2		0
83		42		61		0		5		0
84		112		61		2		2		0
85		109		61		1		2		0
86		43		62		0		5		0
87		108		62		2		2		0
88		107		62		1		2		0
89		44		63		0		5		0
90		105		63		1		2		0
91		110		63		2		2		0
92		45		64		2		5		0
93		110		64		0		2		0
94		113		64		1		2		0
95		46		65		2		5		0
96		112		65		0		2		0
97		103		65		1		2		0
98		47		66		1		5		0
99		119		66		2		2		0
100		116		66		0		2		0
101		48		67		0		5		0
102		119		67		1		2		0
103		104		67		2		2		0
104		49		68		2		5		0
105		104		68		0		2		0
106		114		68		1		2		0
107		50		69		1		5		0
108		118		69		0		2		0
109		115		69		2		2		0
110		51		70		0		5		0
111		111		70		1		2		0
112		108		70		2		2		0
113		52		71		2		5		0
114		104		71		1		2		0
115		119		71		0		2		0
116		53		72		0		5		0
117		119		72		1		2		0
118		111		72		2		2		0
119		54		73		0		5		0
120		120		73		2		2		0
121		107		73		1		2		0
122		55		74		1		5		0
123		116		74		2		2		0
124		104		74		0		2		0
125		56		75		1		5		0
126		115		75		0		2		0
127		102		75		2		2		0
128		57		76		2		5		0
129		106		76		0		2		0
130		118		76		1		2		0
131		58		77		1		5		0
132		113		77		0		2		0
133		107		77		2		2		0
134		59		78		1		5		0
135		112		78		2		2		0
136		117		78		0		2		0
137		60		79		0		5		0
138		116		79		1		2		0
139		104		79		2		2		0
140		61		80		0		5		0
141		62		80		1		5		0
142		101		80		2		2		0
143		63		81		2		5		0
144		64		81		0		5		0
145		102		81		1		2		0
146		65		82		0		5		0
147		66		82		2		5		0
148		103		82		1		2		0
149		67		83		1		5		0
150		68		83		2		5		0
151		119		83		0		2		0
152		69		84		1		5		0
153		70		84		2		5		0
154		118		84		0		2		0
155		71		85		1		5		0
156		72		85		2		5		0
157		111		85		0		2		0
158		73		86		0		5		0
159		74		86		2		5		0
160		114		86		1		2		0
161		75		87		1		5		0
162		76		87		2		5		0
163		120		87		0		2		0
164		77		88		0		5		0
165		78		88		2		5		0
166		119		88		1		2		0
167		79		89		0		5		0
168		80		89		1		5		0
169		104		89		2		2		0
170		81		90		1		5		0
171		82		90		2		5		0
172		110		90		0		2		0
173		83		91		0		5		0
174		84		91		1		5		0
175		115		91		2		2		0
176		85		92		2		5		0
177		86		92		0		5		0
178		101		92		1		2		0
179		87		93		0		5		0
180		88		93		2		5		0
181		119		93		1		2		0
182		89		94		2		5		0
183		90		94		0		5		0
184		117		94		1		2		0
185		91		95		2		5		0
186		92		95		1		5		0
187		108		95		0		2		0
188		93		96		1		5		0
189		94		96		0		5		0
190		103		96		2		2		0
191		95		97		0		5		0
192		96		97		1		5		0
193		104		97		2		2		0
194		97		98		0		5		0
195		98		98		2		5		0
196		107		98		1		2		0
197		99		99		0		5		0
198		100		99		2		5		0
199		120		99		1		2		0
